p cnf 999 729
187 0
223 0
236 0
278 0
299 0
349 0
375 0
396 0
444 0
476 0
524 0
538 0
577 0
622 0
657 0
681 0
733 0
745 0
754 0
779 0
834 0
851 0
863 0
967 0
974 0
-181 0
-182 0
-183 0
-184 0
-185 0
-186 0
-188 0
-189 0
-221 0
-222 0
-224 0
-225 0
-226 0
-227 0
-228 0
-229 0
-231 0
-232 0
-233 0
-234 0
-235 0
-237 0
-238 0
-239 0
-271 0
-272 0
-273 0
-274 0
-275 0
-276 0
-277 0
-279 0
-291 0
-292 0
-293 0
-294 0
-295 0
-296 0
-297 0
-298 0
-341 0
-342 0
-343 0
-344 0
-345 0
-346 0
-347 0
-348 0
-371 0
-372 0
-373 0
-374 0
-376 0
-377 0
-378 0
-379 0
-391 0
-392 0
-393 0
-394 0
-395 0
-397 0
-398 0
-399 0
-441 0
-442 0
-443 0
-445 0
-446 0
-447 0
-448 0
-449 0
-471 0
-472 0
-473 0
-474 0
-475 0
-477 0
-478 0
-479 0
-521 0
-522 0
-523 0
-525 0
-526 0
-527 0
-528 0
-529 0
-531 0
-532 0
-533 0
-534 0
-535 0
-536 0
-537 0
-539 0
-571 0
-572 0
-573 0
-574 0
-575 0
-576 0
-578 0
-579 0
-621 0
-623 0
-624 0
-625 0
-626 0
-627 0
-628 0
-629 0
-651 0
-652 0
-653 0
-654 0
-655 0
-656 0
-658 0
-659 0
-682 0
-683 0
-684 0
-685 0
-686 0
-687 0
-688 0
-689 0
-731 0
-732 0
-734 0
-735 0
-736 0
-737 0
-738 0
-739 0
-741 0
-742 0
-743 0
-744 0
-746 0
-747 0
-748 0
-749 0
-751 0
-752 0
-753 0
-755 0
-756 0
-757 0
-758 0
-759 0
-771 0
-772 0
-773 0
-774 0
-775 0
-776 0
-777 0
-778 0
-831 0
-832 0
-833 0
-835 0
-836 0
-837 0
-838 0
-839 0
-852 0
-853 0
-854 0
-855 0
-856 0
-857 0
-858 0
-859 0
-861 0
-862 0
-864 0
-865 0
-866 0
-867 0
-868 0
-869 0
-961 0
-962 0
-963 0
-964 0
-965 0
-966 0
-968 0
-969 0
-971 0
-972 0
-973 0
-975 0
-976 0
-977 0
-978 0
-979 0
-113 0
-123 0
-133 0
-213 0
-313 0
-323 0
-333 0
-116 0
-126 0
-136 0
-216 0
-316 0
-326 0
-336 0
-149 0
-159 0
-169 0
-249 0
-259 0
-269 0
-359 0
-369 0
-175 0
-195 0
-285 0
-385 0
-176 0
-196 0
-286 0
-386 0
-177 0
-197 0
-287 0
-387 0
-178 0
-198 0
-288 0
-388 0
-179 0
-199 0
-289 0
-389 0
-412 0
-422 0
-432 0
-512 0
-612 0
-632 0
-414 0
-424 0
-434 0
-514 0
-614 0
-634 0
-418 0
-428 0
-438 0
-518 0
-618 0
-638 0
-454 0
-464 0
-544 0
-554 0
-564 0
-644 0
-664 0
-457 0
-467 0
-547 0
-557 0
-567 0
-647 0
-667 0
-481 0
-491 0
-581 0
-591 0
-671 0
-691 0
-486 0
-496 0
-586 0
-596 0
-676 0
-696 0
-487 0
-497 0
-587 0
-597 0
-677 0
-697 0
-713 0
-723 0
-813 0
-823 0
-913 0
-923 0
-933 0
-714 0
-724 0
-814 0
-824 0
-914 0
-924 0
-934 0
-761 0
-841 0
-941 0
-951 0
-763 0
-843 0
-943 0
-953 0
-764 0
-844 0
-944 0
-954 0
-765 0
-845 0
-945 0
-955 0
-767 0
-847 0
-947 0
-957 0
-784 0
-794 0
-874 0
-884 0
-894 0
-984 0
-994 0
-789 0
-799 0
-879 0
-889 0
-899 0
-989 0
-999 0
-117 0
-127 0
-137 0
-147 0
-157 0
-167 0
-243 0
-253 0
-263 0
-283 0
-246 0
-256 0
-266 0
-218 0
-248 0
-258 0
-268 0
-219 0
-315 0
-325 0
-335 0
-355 0
-365 0
-356 0
-366 0
-319 0
-329 0
-339 0
-484 0
-494 0
-416 0
-426 0
-436 0
-456 0
-466 0
-584 0
-594 0
-517 0
-548 0
-558 0
-568 0
-588 0
-598 0
-611 0
-631 0
-641 0
-661 0
-642 0
-662 0
-672 0
-692 0
-617 0
-637 0
-783 0
-793 0
-715 0
-725 0
-785 0
-795 0
-719 0
-729 0
-769 0
-811 0
-821 0
-871 0
-881 0
-891 0
-873 0
-883 0
-893 0
-917 0
-927 0
-937 0
-987 0
-997 0
-122 0
-322 0
-722 0
-822 0
-922 0
-423 0
-124 0
-324 0
-433 0
-633 0
-134 0
-334 0
-636 0
-936 0
-138 0
-338 0
-938 0
-144 0
-244 0
-145 0
-245 0
-545 0
-645 0
-549 0
-649 0
-849 0
-949 0
-151 0
-251 0
-351 0
-451 0
-551 0
-154 0
-254 0
-354 0
-257 0
-357 0
-163 0
-363 0
-463 0
-563 0
-663 0
-267 0
-367 0
-174 0
-674 0
-675 0
-875 0
-876 0
-877 0
-678 0
-878 0
-679 0
-281 0
-381 0
-781 0
-981 0
-787 0
-887 0
-796 0
-896 0
-996 0
-499 0
-599 0
-699 0
673 0
872 0
247 0
694 0
959 0
171 0
-172 0
-173 0
-241 0
-242 0
-693 0
-695 0
-698 0
-952 0
-956 0
-958 0
-191 0
-483 0
-493 0
-583 0
-593 0
-782 0
-792 0
-882 0
-892 0
-982 0
-992 0
-111 0
-121 0
-131 0
-141 0
-161 0
-217 0
-613 0
-643 0
-812 0
-842 0
-919 0
-929 0
-939 0
-459 0
-559 0
-194 0
541 0
-542 0
-543 0
-546 0
-461 0
-561 0
-511 0
143 0
-142 0
-146 0
-148 0
-153 0
-353 0
-193 0
192 0
383 0
942 0
993 0
-382 0
-384 0
-946 0
-948 0
-991 0
-995 0
-998 0
-282 0
-762 0
-983 0
-112 0
-132 0
-152 0
-162 0
-912 0
-932 0
-492 0
-592 0
284 0
595 0
712 0
791 0
332 0
-331 0
-337 0
-711 0
-716 0
-717 0
-718 0
-797 0
-798 0
-212 0
-312 0
-485 0
-495 0
-585 0
-214 0
-264 0
-352 0
-362 0
-515 0
-555 0
-565 0
-721 0
-895 0
358 0
498 0
897 0
727 0
437 0
-431 0
-435 0
-439 0
-726 0
-728 0
-898 0
-158 0
-168 0
-368 0
-417 0
-427 0
-488 0
-817 0
-827 0
-318 0
-328 0
-458 0
-468 0
-327 0
321 0
317 0
931 0
-311 0
-314 0
-935 0
-211 0
-911 0
-921 0
-361 0
-421 0
215 0
364 0
114 0
261 0
411 0
-115 0
-118 0
-119 0
-262 0
-265 0
-413 0
-415 0
-419 0
-125 0
-135 0
-164 0
-255 0
-615 0
-815 0
-915 0
139 0
252 0
128 0
513 0
453 0
635 0
-129 0
-452 0
-455 0
-516 0
-519 0
-639 0
-425 0
-553 0
-665 0
-828 0
-928 0
-552 0
429 0
556 0
616 0
465 0
155 0
-156 0
-462 0
-469 0
-619 0
-165 0
-566 0
-646 0
-666 0
-489 0
-816 0
-916 0
-829 0
166 0
482 0
648 0
918 0
562 0
589 0
819 0
669 0
846 0
-569 0
-582 0
-668 0
-818 0
-848 0
-766 0
-826 0
-886 0
-988 0
768 0
825 0
926 0
786 0
888 0
-788 0
-885 0
-925 0
-986 0
985 0